Problem:    Busz
Rows:       8
Columns:    5 (5 integer, 5 binary)
Non-zeros:  30
Status:     INTEGER OPTIMAL
Objective:  MinimumJarat = 2 (MINimum)

   No.   Row name        Activity     Lower bound   Upper bound
------ ------------    ------------- ------------- -------------
     1 Gyor                        2             1               
     2 Ravazd                      1             1               
     3 Veszpremvarsany
                                   1             1               
     4 Csesznek                    2             1               
     5 Zirc                        2             2               
     6 Epleny                      1             1               
     7 Veszprem                    2             1               
     8 MinimumJarat                2                             

   No. Column name       Activity     Lower bound   Upper bound
------ ------------    ------------- ------------- -------------
     1 jarat1       *              0             0             1 
     2 jarat2       *              0             0             1 
     3 jarat3       *              1             0             1 
     4 jarat4       *              1             0             1 
     5 jarat5       *              0             0             1 

Integer feasibility conditions:

KKT.PE: max.abs.err = 0.00e+00 on row 0
        max.rel.err = 0.00e+00 on row 0
        High quality

KKT.PB: max.abs.err = 0.00e+00 on row 0
        max.rel.err = 0.00e+00 on row 0
        High quality

End of output
